InboundTrucks  = 8;
OutboundTrucks = 5;
InboundDoors   = 2;
OutboundDoors  = 1;
ReleaseTime    = [4,1,4,2,3,0,5,4];
UnloadTime     = [8,14,8,9,12,8,10,12];
LoadTime       = [6,9,8,7,6];
TransferTime   = [| 5,8,6,4,3 | 5,8,4,3,7 | 8,5,5,3,2 | 5,5,4,3,2 | 7,8,6,7,4 | 7,8,4,5,8 | 5,3,5,2,5 | 7,7,5,2,8 |];
